0 1937
1 1937
2 1937
3 1937
4 1937
5 1937
6 1926
7 1926
8 1926
9 1860
10 1831
11 1816
12 1767
13 1767
14 1767
15 1767
16 1767
17 1755
18 1690
19 1690
20 1690
21 1684
22 1625
23 1625
24 1625
25 1625
26 1609
27 1609
28 1562
29 1493
30 1493
31 1493
32 1493
33 1493
34 1493
35 1410
36 1410
37 1410
38 1410
39 1410
40 1410
41 1403
42 1403
43 1403
44 1403
45 1369
46 1369
47 1364
48 1364
49 1364
50 1327
51 1327
52 1327
53 1327
54 1327
55 1327
56 1319
57 1319
58 1319
59 1319
60 1319
61 1283
62 1283
63 1283
64 1283
65 1283
66 1283
67 1283
68 1269
69 1269
70 1269
71 1269
72 1198
73 1198
74 1198
75 1198
76 1198
77 1198
78 1198
79 1198
80 1198
81 1198
82 1181
83 1181
84 1181
85 1170
86 1170
87 1170
88 1170
89 1170
90 1170
91 1170
92 1170
93 1165
94 1165
95 1165
96 1156
97 1156
98 1143
99 1143
100 1135
101 1118
102 1118
103 1118
104 1118
105 1115
106 1115
107 1111
108 1111
109 1111
110 1111
111 1111
112 1101
113 1101
114 1096
115 1086
116 1086
117 1086
118 1086
119 1086
120 1086
121 1081
122 1060
123 1060
124 1060
125 1060
126 1055
127 1055
128 1055
129 1055
130 1055
131 1047
132 1047
133 1047
134 1047
135 1047
136 1047
137 1039
138 1039
139 1039
140 1039
141 1039
142 1039
143 1039
144 1039
145 1039
146 1038
147 1038
148 1029
149 1029
150 1029
151 1029
152 1012
153 1012
154 1012
155 1012
156 1012
157 1012
158 1012
159 1012
160 1012
161 1007
162 1007
163 1007
164 996
165 996
166 996
167 996
168 996
169 996
170 996
171 995
172 995
173 989
174 979
175 979
176 979
177 979
178 979
179 979
180 975
181 975
182 975
183 975
184 966
185 966
186 966
187 966
188 966
189 962
190 962
191 962
192 961
193 961
194 957
195 956
196 956
197 948
198 948
199 948
200 948
201 948
202 948
203 948
204 948
205 948
206 948
207 948
208 948
209 941
210 941
211 941
212 941
213 941
214 941
215 941
216 932
217 932
218 932
219 932
220 932
221 932
222 932
223 932
224 932
225 932
226 928
227 928
228 921
229 921
230 921
231 921
232 912
233 912
234 912
235 912
236 912
237 912
238 912
239 912
240 912
241 912
242 912
243 912
244 912
245 912
246 912
247 912
248 912
249 912
250 912
251 912
252 912
253 912
254 912
255 908
256 908
257 899
258 899
259 899
260 899
261 899
262 899
263 899
264 899
265 899
266 899
267 899
268 899
269 899
270 899
271 899
272 899
273 899
274 899
275 899
276 899
277 899
278 899
279 899
280 899
281 899
282 899
283 899
284 899
285 899
286 899
287 899
288 899
289 899
290 899
291 899
292 899
293 899
294 899
295 899
296 899
297 899
298 899
299 899
300 899
301 899
302 899
303 899
304 899
305 899
306 899
307 899
308 899
309 899
310 899
311 899
312 899
313 899
314 899
315 899
316 899
317 899
318 899
319 899
320 899
321 899
322 899
323 899
324 899
325 899
326 899
327 899
328 899
329 899
330 899
331 899
332 899
333 899
334 899
335 899
336 899
337 899
338 899
339 899
340 899
341 899
342 899
343 899
344 899
345 899
346 899
347 899
348 899
349 899
350 899
351 899
352 899
353 899
354 899
355 899
356 899
357 899
358 899
359 899
360 899
361 899
362 899
363 899
364 899
365 899
366 899
367 899
368 899
369 899
370 899
371 899
372 899
373 899
374 899
375 899
376 899
377 899
378 899
379 899
380 899
381 899
382 899
383 899
384 899
385 899
386 899
387 899
388 899
389 899
390 899
391 899
392 899
393 899
394 899
395 899
396 899
397 899
398 899
399 899
400 899
401 899
402 899
403 899
404 899
405 899
406 899
407 899
408 899
409 899
410 899
411 899
412 899
413 899
414 899
415 899
416 899
417 899
418 899
419 899
420 899
421 899
422 899
423 899
424 899
425 899
426 899
427 899
428 899
429 899
430 899
431 899
432 899
433 899
434 899
435 899
436 899
437 899
438 899
439 899
440 899
441 899
442 899
443 899
444 899
445 899
446 899
447 899
448 899
449 899
450 899
451 899
452 899
453 899
454 899
455 899
456 899
457 899
458 899
459 899
460 899
461 899
462 899
463 899
464 899
465 899
466 899
467 899
468 899
469 899
470 899
471 899
472 899
473 899
474 899
475 899
476 899
477 899
478 899
479 899
480 899
481 899
482 899
483 899
484 899
485 899
486 899
487 899
488 899
489 899
490 899
491 899
492 899
493 899
494 899
495 899
496 899
497 899
498 899
499 899
500 899
501 899
502 899
503 899
504 899
505 899
506 899
507 899
508 899
509 899
510 899
511 899
512 899
513 899
514 899
515 899
516 899
517 899
518 899
519 899
520 899
521 899
522 899
523 899
524 899
525 899
526 899
527 899
528 899
529 899
530 899
531 899
532 899
533 899
534 899
535 899
536 899
537 899
538 899
539 899
540 899
541 899
542 899
543 899
544 899
545 899
546 899
547 899
548 899
549 899
550 899
551 899
552 899
553 899
554 899
555 899
556 899
557 899
558 899
559 899
560 899
561 899
562 899
563 899
564 899
565 899
566 899
567 899
568 899
569 899
570 899
571 899
572 899
573 899
574 899
575 899
576 899
577 899
578 899
579 899
580 899
581 899
582 899
583 899
584 899
585 899
586 899
587 899
588 899
589 899
590 899
591 899
592 899
593 899
594 899
595 899
596 899
597 899
598 899
599 899
600 899
601 899
602 899
603 899
604 899
605 899
606 899
607 899
608 899
609 899
610 899
611 899
612 899
613 899
614 899
615 899
616 899
617 899
618 899
619 899
620 899
621 899
622 899
623 899
624 899
625 899
626 899
627 899
628 899
629 899
630 899
631 899
632 899
633 899
634 899
635 899
636 899
637 899
638 899
639 887
640 887
641 887
642 887
643 887
644 887
645 887
646 887
647 887
648 887
649 887
650 887
651 887
652 887
653 887
654 887
655 887
656 887
657 887
658 887
659 887
660 887
661 887
662 887
663 887
664 887
665 887
666 887
667 887
668 887
669 887
670 887
671 887
672 887
673 887
674 887
675 887
676 887
677 887
678 887
679 887
680 887
681 887
682 887
683 887
684 887
685 887
686 887
687 887
688 887
689 887
690 887
691 887
692 887
693 887
694 887
695 887
696 887
697 887
698 887
699 887
700 887
701 887
702 887
703 887
704 887
705 887
706 887
707 887
708 887
709 887
710 887
711 887
712 887
713 887
714 887
715 887
716 887
717 887
718 887
719 887
720 887
721 887
722 887
723 887
724 887
725 887
726 887
727 887
728 887
729 887
730 887
731 887
732 887
733 887
734 887
735 887
736 887
737 887
738 887
739 887
740 887
741 887
742 887
743 887
744 887
745 887
746 887
747 887
748 887
749 887
750 887
751 887
752 887
753 887
754 887
755 887
756 887
757 887
758 887
759 887
760 887
761 887
762 887
763 887
764 887
765 887
766 887
767 887
768 887
769 887
770 887
771 887
772 887
773 887
774 887
775 887
776 887
777 887
778 887
779 887
780 887
781 887
782 887
783 887
784 887
785 887
786 887
787 887
788 887
789 887
790 887
791 887
792 887
793 887
794 887
795 887
796 887
797 887
798 887
799 887
800 887
801 887
802 887
803 887
804 887
805 887
806 887
807 887
808 887
809 887
810 887
811 887
812 887
813 887
814 887
815 887
816 887
817 887
818 887
819 887
820 887
821 887
822 887
823 887
824 887
825 887
826 887
827 887
828 887
829 887
830 887
831 887
832 887
833 887
834 887
835 887
836 887
837 887
838 887
839 887
840 887
841 887
842 887
843 887
844 887
845 887
846 887
847 887
848 887
849 887
850 887
851 887
852 887
853 887
854 887
855 887
856 887
857 887
858 887
859 887
860 887
861 887
862 887
863 887
864 887
865 887
866 887
867 887
868 887
869 887
870 887
871 887
872 887
873 887
874 887
875 887
876 887
877 887
878 887
879 887
880 887
881 887
882 887
883 887
884 887
885 887
886 887
887 887
888 887
889 887
890 887
891 887
892 887
893 887
894 887
895 887
896 887
897 887
898 887
899 887
900 887
901 887
902 887
903 887
904 887
905 887
906 887
907 887
908 887
909 887
910 887
911 887
912 887
913 887
914 887
915 887
916 887
917 887
918 887
919 887
920 887
921 887
922 887
923 887
924 887
925 887
926 887
927 887
928 887
929 887
930 887
931 887
932 887
933 887
934 887
935 887
936 887
937 887
938 887
939 887
940 887
941 887
942 887
943 887
944 887
945 887
946 887
947 887
948 887
949 887
950 887
951 887
952 887
953 887
954 887
955 887
956 887
957 887
958 887
959 887
960 887
961 887
962 887
963 887
964 887
965 887
966 887
967 887
968 887
969 887
970 887
971 887
972 887
973 887
974 887
975 887
976 887
977 887
978 887
979 887
980 887
981 887
982 887
983 887
984 887
985 887
986 887
987 887
988 887
989 887
990 887
991 887
992 887
993 887
994 887
995 887
996 887
997 887
998 887
999 887
Best: [[21,6,26,11,16,10,8],
       [7,4,3,24,29,5,12,9,19,23,30],
       [31,13,17,15,25,28],
       [27,14,18,20,32,22,2]], fitness: 887
